qe/outputs/qe/qe_queries_cbrdelay_obs_redo/T=5,eliminate=[I_0,I_1,I_2,I_3,I_4,C,B,lhs=L_4].smt2
; benchmark generated from python API
(set-info :status unknown)
(declare-fun S_4 () Real)
(declare-fun L_4 () Real)
(declare-fun A_4 () Real)
(declare-fun L_2 () Real)
(declare-fun S_2 () Real)
(declare-fun A_2 () Real)
(declare-fun S_1 () Real)
(declare-fun L_1 () Real)
(declare-fun A_1 () Real)
(declare-fun L_0 () Real)
(declare-fun S_0 () Real)
(declare-fun A_0 () Real)
(declare-fun A_3 () Real)
(declare-fun S_3 () Real)
(assert
 (let (($x34 (>= L_0 0.0)))
 (let ((?x6908 (* 4.0 L_4)))
 (let ((?x1013 (* (- 1.0) S_0)))
 (let ((?x6906 (* (- 4.0) A_4)))
 (let ((?x9078 (* 5.0 A_3)))
 (let ((?x13784 (* (- 5.0) L_2)))
 (let (($x474 (= L_4 L_2)))
 (let ((?x2801 (* 2.0 L_4)))
 (let ((?x359 (* (- 1.0) A_1)))
 (let ((?x2800 (* (- 2.0) A_4)))
 (let ((?x3022 (* 3.0 A_3)))
 (let ((?x3405 (* (- 3.0) L_2)))
 (let (($x12743 (<= (+ ?x3405 ?x3022 (* (- 3.0) A_4) S_2 ?x1013 (* 3.0 L_4)) (- 15.0))))
 (let ((?x5483 (* 3.0 L_4)))
 (let ((?x333 (* (- 1.0) S_1)))
 (let ((?x5240 (* (- 3.0) A_4)))
 (let ((?x3997 (* 4.0 A_3)))
 (let ((?x12827 (* (- 4.0) L_2)))
 (let (($x20249 (or $x474 (<= (+ ?x12827 ?x3997 ?x5240 (* (- 1.0) A_0) ?x5483 L_0) (- 15.0)))))
 (let (($x13494 (<= (+ (* (- 2.0) L_2) (* 2.0 A_3) ?x2800 S_2 ?x333 ?x2801) (- 10.0))))
 (let ((?x1034 (* (- 1.0) A_0)))
 (let ((?x3014 (* 2.0 A_3)))
 (let ((?x993 (* (- 2.0) L_2)))
 (let (($x13483 (<= (+ (* (- 1.0) L_2) A_3 (* (- 1.0) A_4) ?x1034 S_1 L_4 L_0) (- 5.0))))
 (let (($x13449 (<= (+ (* (- 1.0) A_2) (* (/ 3.0 2.0) S_1) (* (- (/ 1.0 2.0)) S_0) L_2) (- 5.0))))
 (let (($x61 (= L_2 L_1)))
 (let ((?x364 (* (- 1.0) A_3)))
 (let ((?x13140 (+ (* (/ 5.0 2.0) L_2) ?x364 (* (/ 3.0 2.0) A_4) (* (- (/ 3.0 2.0)) A_2) S_0 (* (- (/ 3.0 2.0)) L_4))))
 (let ((?x2766 (* (/ 1.0 2.0) L_4)))
 (let ((?x4806 (* (/ 1.0 2.0) L_1)))
 (let ((?x4758 (* (- (/ 1.0 2.0)) A_1)))
 (let ((?x2754 (* (/ 1.0 2.0) A_2)))
 (let ((?x2783 (* (- (/ 1.0 2.0)) A_4)))
 (let ((?x2009 (* (/ 1.0 2.0) A_3)))
 (let ((?x251 (* (- 1.0) L_2)))
 (let ((?x12616 (+ ?x251 ?x2009 ?x2783 ?x2754 ?x4758 ?x4806 ?x2766)))
 (let (($x12622 (<= 0.0 ?x12616)))
 (let ((?x2623 (* (- 2.0) L_4)))
 (let ((?x996 (* (- 2.0) A_2)))
 (let ((?x4646 (* 2.0 A_4)))
 (let ((?x3655 (* (- 2.0) A_3)))
 (let ((?x2939 (* 4.0 L_2)))
 (let ((?x2791 (* (/ 3.0 2.0) L_4)))
 (let ((?x1497 (* (- (/ 1.0 2.0)) S_0)))
 (let ((?x2788 (* (- (/ 3.0 2.0)) A_4)))
 (let ((?x2011 (* (/ 3.0 2.0) A_3)))
 (let (($x13219 (<= (+ (* 3.0 L_2) ?x3655 (* (- 1.0) A_2) (* 2.0 S_4) S_0) (- 5.0))))
 (let ((?x234 (* (- 1.0) L_1)))
 (let ((?x361 (* (- 1.0) A_2)))
 (let ((?x997 (* 2.0 L_2)))
 (let ((?x434 (+ ?x997 ?x364 ?x361 A_1 S_4 ?x234)))
 (let (($x13282 (<= (+ (* 3.0 L_2) ?x3655 A_4 ?x361 S_4 S_0 (* (- 1.0) L_4)) 0.0)))
 (let (($x13194 (<= (+ (* (- (/ 1.0 3.0)) L_2) (* (/ 1.0 3.0) A_3) ?x359 (* (/ 2.0 3.0) S_0) L_1) (- 5.0))))
 (let (($x51 (= L_1 L_0)))
 (let (($x12411 (not $x474)))
 (let (($x20121 (or $x61 $x12411 $x12622 (<= (+ ?x997 ?x3655 A_4 ?x361 S_4 S_0) 0.0))))
 (let (($x1261 (not $x61)))
 (let (($x20710 (or $x474 $x1261 (<= (+ ?x2009 ?x2783 ?x2754 ?x4758 (* (- (/ 1.0 2.0)) L_1) ?x2766) 0.0))))
 (let (($x13176 (<= (+ ?x251 A_3 (* (- 1.0) A_4) A_1 (* (- 1.0) S_2) ?x234 L_4) (- 5.0))))
 (let ((?x339 (* (- 1.0) S_2)))
 (let ((?x367 (* (- 1.0) A_4)))
 (let ((?x7140 (* (/ 2.0 3.0) L_4)))
 (let ((?x7138 (* (- (/ 2.0 3.0)) L_1)))
 (let ((?x7137 (* (/ 2.0 3.0) A_1)))
 (let ((?x7136 (* (- (/ 2.0 3.0)) A_4)))
 (let (($x13120 (or $x61 $x474 (<= (+ (* (- (/ 1.0 2.0)) L_2) A_3 ?x2783 (* (- (/ 1.0 2.0)) A_2) ?x2766) (- 5.0)))))
 (let (($x13118 (<= (+ ?x251 A_3 ?x7136 (* (- (/ 1.0 3.0)) A_1) (* (/ 1.0 3.0) L_1) ?x7140) (- 5.0))))
 (let ((?x1596 (* (- 3.0) L_1)))
 (let ((?x1595 (* 3.0 A_1)))
 (let ((?x1020 (* (- 3.0) A_2)))
 (let (($x6247 (<= (+ ?x996 (* 2.0 A_1) S_2 ?x333 (* (- 2.0) L_1) ?x997) 0.0)))
 (let (($x3739 (<= (+ ?x996 (* 2.0 A_1) S_1 ?x1013 (* (- 2.0) L_1) ?x997) 0.0)))
 (let (($x12152 (<= (+ A_3 ?x367 ?x361 (* 2.0 A_1) ?x1013 (* (- 2.0) L_1) L_4) 0.0)))
 (let (($x20201 (or $x61 (<= (+ ?x1020 ?x1595 S_2 ?x1013 ?x1596 (* 3.0 L_2)) 0.0))))
 (let (($x13061 (<= (+ ?x993 ?x3014 ?x2800 (* 2.0 A_1) ?x339 ?x1013 (* (- 2.0) L_1) ?x2801) 0.0)))
 (let ((?x3367 (* (- 4.0) L_1)))
 (let ((?x3477 (* 4.0 A_1)))
 (let ((?x3476 (* (- 4.0) A_2)))
 (let ((?x1021 (* 3.0 L_2)))
 (let (($x20051 (or $x51 (<= (+ A_2 (* (- 2.0) A_1) S_0 (* 2.0 L_1) ?x251) (- 5.0)))))
 (let (($x6179 (<= (+ ?x996 (* 2.0 A_1) ?x1034 S_2 (* (- 2.0) L_1) ?x997 L_0) 0.0)))
 (let (($x1759 (<= (+ A_1 ?x339 ?x234) 0.0)))
 (let (($x20115 (or $x51 (<= (+ ?x359 (* (/ 1.0 2.0) S_2) (* (/ 1.0 2.0) S_0) L_1) (- 5.0)))))
 (let (($x12341 (<= (+ ?x1021 ?x364 A_4 ?x996 A_1 S_2 ?x234 (* (- 1.0) L_4)) 0.0)))
 (let (($x12591 (<= (+ (* (- (/ 1.0 2.0)) L_2) ?x2009 ?x2783 ?x4758 (* (/ 1.0 2.0) S_2) ?x4806 ?x2766) (- 5.0))))
 (let (($x20208 (or $x474 (<= (+ ?x251 A_3 ?x367 A_1 ?x1034 ?x234 L_4 L_0) 0.0))))
 (let (($x12463 (<= (+ L_2 A_3 ?x996 (* 2.0 A_1) ?x339 (* (- 2.0) L_1)) 0.0)))
 (let (($x20155 (or $x51 $x474 (<= (+ ?x993 A_3 ?x367 A_2 ?x359 L_1 L_4) (- 5.0)))))
 (let ((?x285 (* (- 1.0) L_4)))
 (let ((?x1014 (* (- 2.0) L_1)))
 (let ((?x1012 (* 2.0 A_1)))
 (let (($x12306 (or $x61 (<= (+ (* (/ 1.0 2.0) L_2) ?x2009 ?x361 (* (/ 1.0 2.0) S_1)) (- 5.0)))))
 (let (($x11419 (<= (+ (* (- (/ 1.0 3.0)) L_2) (* (/ 1.0 3.0) A_3) ?x339 (* (/ 2.0 3.0) S_0)) 0.0)))
 (let (($x12073 (<= (+ (* (/ 1.0 3.0) L_2) (* (/ 2.0 3.0) A_3) ?x361 (* (/ 1.0 3.0) S_0)) (- 5.0))))
 (let (($x108 (>= S_1 S_0)))
 (let (($x111 (>= S_2 S_1)))
 (let (($x117 (>= S_4 S_3)))
 (let (($x119 (>= A_1 A_0)))
 (let (($x120 (>= A_2 A_1)))
 (let (($x121 (>= A_3 A_2)))
 (and (<= (+ A_3 ?x251) S_3) $x121 $x120 $x119 $x117 $x111 $x108 (or (not (<= 0.0 (+ ?x234 L_0))) $x51) (or (not (<= 0.0 (+ L_1 ?x251))) $x61) (or (<= (+ ?x251 A_3 ?x367 A_1 ?x333 ?x234 L_4) 0.0) $x474) (or $x51 (<= (+ L_2 ?x364 A_4 ?x359 S_0 L_1 ?x285) 0.0)) (or (<= (+ ?x993 A_3 ?x367 A_2 ?x339 L_4) 0.0) $x474) (or $x51 (<= (+ A_2 ?x359 ?x339 S_0 L_1 ?x251) 0.0)) (or $x61 (<= (+ ?x361 S_2 L_2) (- 5.0))) (or $x61 $x12073 (<= (+ L_2 A_3 ?x996 A_1 ?x234) (- 10.0))) (or $x1759 $x11419) (or $x1759 (<= (+ ?x339 S_0) (- 5.0))) $x12306 (or $x61 (<= (+ ?x361 ?x1034 (* 2.0 S_1) L_2 L_0) (- 5.0))) (or $x61 (<= (+ ?x997 ?x364 A_4 ?x361 S_1 ?x285) 0.0)) (or $x61 (<= (+ A_4 ?x1020 ?x1012 ?x1014 ?x1021 ?x285) 0.0)) $x20155 (or (not (<= 0.0 (+ L_2 ?x285))) $x474) (or $x51 (<= (+ ?x359 S_1 L_1) (- 5.0))) (or $x51 (<= (+ ?x359 S_0 L_1) (- 10.0))) (or $x61 $x12463) (or $x61 (<= (+ L_2 A_3 ?x996 A_1 ?x234) (- 5.0))) (or $x1759 (<= (+ L_2 ?x364 S_4 ?x339 S_0) 0.0)) $x20208 (or $x61 (<= (+ ?x361 A_1 ?x1034 S_1 ?x234 L_2 L_0) 0.0)) (or $x474 (<= (+ ?x367 S_4 L_4) (- 5.0))) (or $x51 $x474 $x12591) (or $x61 $x12341) $x20115 (or $x51 (<= (+ L_2 ?x364 ?x359 S_4 S_0 L_1) (- 5.0))) (or $x61 (<= ?x434 0.0)) (or $x474 (<= (+ ?x251 A_3 ?x367 ?x359 S_2 L_1 L_4) (- 5.0))) (or $x1759 (<= (+ A_3 ?x361 ?x339 S_0) 0.0)) (or $x474 (<= (+ ?x251 A_3 ?x367 L_4) (- 10.0))) (or $x474 (<= (+ ?x251 ?x3014 ?x367 ?x361 L_4) (- 5.0))) (or $x61 $x6179) $x20051 (or $x474 (<= (+ ?x367 A_1 S_4 ?x339 ?x234 L_4) 0.0)) (or $x61 (<= (+ ?x1021 A_3 ?x3476 ?x3477 ?x1013 ?x3367) 0.0)) (or $x474 $x13061) (or $x474 (<= (+ ?x993 ?x3014 ?x2800 A_1 ?x1013 ?x234 ?x2801) (- 5.0))) $x20201 (or $x61 $x474 $x12152) (or $x61 $x3739) (or $x61 (<= (+ ?x997 A_3 ?x1020 ?x1595 ?x1034 ?x1596 L_0) 0.0)) (or $x61 $x6247) (or $x61 (<= (+ ?x997 A_3 ?x1020 ?x1595 ?x333 ?x1596) 0.0)) (or $x51 $x474 $x13118) $x13120 (or $x474 (<= (+ ?x251 A_3 ?x7136 ?x7137 ?x339 ?x7138 ?x7140) 0.0)) (or $x474 (<= (+ ?x251 ?x3014 ?x367 ?x361 A_1 ?x339 ?x234 L_4) 0.0)) (or $x474 $x13176) (or $x51 (<= (+ A_3 ?x361 ?x359 S_0 L_1) (- 5.0))) $x20710 (or $x474 (<= (+ ?x3405 ?x3014 ?x2800 A_2 ?x1034 ?x2801 L_0) (- 5.0))) $x20121 (or $x51 $x13194) (or $x474 (<= ?x12616 0.0)) (or $x61 $x12622 $x13282) (or $x61 (<= (+ ?x997 ?x364 ?x361 S_4 S_1) (- 5.0))) (or $x61 (<= ?x434 (- 5.0)) $x13219) (or $x474 (<= (+ ?x993 ?x2011 ?x2788 ?x2754 ?x1497 ?x2791) (- 5.0))) (or $x61 $x12622 (<= (+ ?x2939 ?x3655 ?x4646 ?x996 S_2 S_0 ?x2623) 0.0)) (or $x474 (<= (+ ?x3405 ?x3014 ?x2800 A_2 ?x333 ?x2801) (- 5.0))) (or $x61 $x12622 (<= ?x13140 0.0)) (or $x61 $x13449) (or $x474 (<= (+ ?x993 ?x3014 ?x2800 S_1 ?x1013 ?x2801) (- 10.0))) (or $x474 $x13483) (or $x474 (<= (+ ?x993 ?x3014 ?x2800 ?x1034 S_2 ?x2801 L_0) (- 10.0))) (or $x474 $x13494) $x20249 (or $x474 (<= (+ ?x12827 ?x3997 ?x5240 ?x333 ?x5483) (- 15.0))) (or $x474 $x12743) (or $x474 (<= (+ ?x3405 ?x3022 ?x2800 ?x339 ?x2801) (- 10.0))) (or $x474 (<= (+ ?x3405 ?x3022 ?x2800 ?x359 L_1 ?x2801) (- 10.0))) (or $x474 (<= (+ ?x13784 ?x9078 ?x6906 ?x1013 ?x6908) (- 20.0))) $x34 (<= (+ L_2 S_3 ?x364) 0.0) (<= (+ ?x1034 S_0 L_0) 0.0) (<= (+ ?x359 L_1 S_1) 0.0) (<= (+ ?x361 S_2 L_2) 0.0) (<= (+ ?x367 L_4 S_4) 0.0)))))))))))))))))))))))))))))))))))))))))))))))))))))))))))))))))))))))))))))))))))))))))))))))))))))))
(check-sat)
